; benchmark generated from python API
(set-info :status unknown)
(declare-fun x_month () (_ BitVec 32))
(declare-fun x_year () (_ BitVec 32))
(declare-fun x_day () (_ BitVec 32))
(assert
 (let (($x4592 (or (= (_ bv4 32) x_month) (= (_ bv6 32) x_month) (= (_ bv9 32) x_month) (= (_ bv11 32) x_month))))
 (let (($x2762 (and (= (_ bv0 32) (bvsmod x_year (_ bv4 32))) (and (distinct (_ bv0 32) (bvsmod x_year (_ bv100 32))) true))))
 (let (($x1618 (= (_ bv2 32) x_month)))
 (let ((?x3353 (ite $x1618 (ite (or $x2762 (= (_ bv0 32) (bvsmod x_year (_ bv400 32)))) (_ bv29 32) (_ bv28 32)) (ite $x4592 (_ bv30 32) (_ bv31 32)))))
 (let (($x1075 (bvsle x_day ?x3353)))
 (let (($x898 (bvsle (_ bv1 32) x_day)))
 (let (($x1380 (bvsle (_ bv1 32) x_month)))
 (let (($x2750 (bvsge (_ bv12 32) x_month)))
 (let (($x4678 (bvsle (_ bv1901 32) x_year)))
 (or (and (= (_ bv1900 32) x_year) (bvsle (_ bv3 32) x_month) $x2750 $x898 $x1075) (and $x4678 (bvsge (_ bv2099 32) x_year) $x1380 $x2750 $x898 $x1075) (and (= (_ bv2100 32) x_year) $x1380 (bvsge (_ bv2 32) x_month) $x898 $x1075))))))))))))
(assert
 (let (($x5602 (or (bvsgt (_ bv2 32) x_month) (and (= (_ bv2 32) x_month) (bvsge (_ bv28 32) x_day)))))
 (let (($x3621 (= (_ bv2022 32) x_year)))
 (not (or (bvsgt (_ bv2022 32) x_year) (and $x3621 $x5602))))))
(assert
 (let (($x1408 (or (bvslt (_ bv3 32) x_month) (and (= (_ bv3 32) x_month) (bvsle (_ bv1 32) x_day)))))
(let (($x3621 (= (_ bv2022 32) x_year)))
(not (or (bvslt (_ bv2022 32) x_year) (and $x3621 $x1408))))))
(check-sat)
